10J3M/DAT/10J3MNNR-12.dat
10 3
33.2519 33.4908
19.4724 22.3021
35.3982 23.4636
31.2841 46.0067
22.9109 25.0563
23.5267 24.0759
31.3845 5.6424
32.1948 2.4046
25.2692 48.3628
24.7782 2.9938
233.799