10J3M/SOL/10J3MNNR-12.sol
solution status: optimal solution found
objective value:                     93.1569666666666
x#1#3                                               1 	(obj:0)
x#2#1                                               1 	(obj:0)
x#3#3                                               1 	(obj:0)
x#4#1                                0.31434285574248 	(obj:0)
x#4#2                               0.685657144257519 	(obj:0)
x#5#2                                               1 	(obj:0)
x#6#2                                               1 	(obj:0)
x#7#1                                               1 	(obj:0)
x#8#1                               0.238794256629435 	(obj:0)
x#8#3                               0.761205743370565 	(obj:0)
x#9#2                                               1 	(obj:0)
x#10#1                                              1 	(obj:0)
z                                    93.1569666666666 	(obj:1)
